<?xml version = "1.0" encoding="UTF-8" standalone="yes"?>
<CPLEXSolution version="1.2">
 <header
   problemName="IloCplex"
   solutionName="incumbent"
   solutionIndex="-1"
   objectiveValue="28588781.25"
   solutionTypeValue="3"
   solutionTypeString="primal"
   solutionStatusValue="102"
   solutionStatusString="integer optimal, tolerance"
   solutionMethodString="mip"
   primalFeasible="1"
   dualFeasible="0"
   MIPNodes="0"
   MIPIterations="0"
   writeLevel="1"/>
 <quality
   epInt="1.0000000000000001e-05"
   epRHS="9.9999999999999995e-07"
   maxIntInfeas="0"
   maxPrimalInfeas="0"
   maxX="5333"
   maxSlack="63995994667"/>
 <linearConstraints>
  <constraint index="0" slack="0"/>
  <constraint index="1" slack="0"/>
  <constraint index="2" slack="1"/>
  <constraint index="3" slack="0"/>
  <constraint index="4" slack="0"/>
  <constraint index="5" slack="0"/>
  <constraint index="6" slack="63995994667"/>
  <constraint index="7" slack="755948837"/>
  <constraint index="8" slack="75000000"/>
  <constraint index="9" slack="0"/>
  <constraint index="10" slack="42345137910"/>
  <constraint index="11" slack="467415589"/>
  <constraint index="12" slack="0"/>
  <constraint index="13" slack="0"/>
  <constraint index="14" slack="0"/>
  <constraint index="15" slack="0"/>
  <constraint index="16" slack="0"/>
  <constraint index="17" slack="0"/>
  <constraint index="18" slack="6"/>
  <constraint index="19" slack="0"/>
  <constraint index="20" slack="0"/>
  <constraint index="21" slack="0"/>
  <constraint index="22" slack="0"/>
  <constraint index="23" slack="0"/>
  <constraint index="24" slack="0"/>
  <constraint index="25" slack="82"/>
  <constraint index="26" slack="0"/>
  <constraint index="27" slack="0"/>
  <constraint index="28" slack="606"/>
  <constraint index="29" slack="0"/>
  <constraint index="30" slack="6"/>
  <constraint index="31" slack="0"/>
  <constraint index="32" slack="0"/>
  <constraint index="33" slack="0"/>
  <constraint index="34" slack="0"/>
  <constraint index="35" slack="0"/>
  <constraint index="36" slack="0"/>
  <constraint index="37" slack="0"/>
  <constraint index="38" slack="0"/>
  <constraint index="39" slack="-2.75"/>
  <constraint index="40" slack="-1.5"/>
  <constraint index="41" slack="-1"/>
  <constraint index="42" slack="0"/>
  <constraint index="43" slack="0"/>
  <constraint index="44" slack="-0.25"/>
  <constraint index="45" slack="0"/>
  <constraint index="46" slack="-0.5"/>
  <constraint index="47" slack="0"/>
  <constraint index="48" slack="0"/>
  <constraint index="49" slack="0.75"/>
  <constraint index="50" slack="0"/>
  <constraint index="51" slack="0.5"/>
  <constraint index="52" slack="-0.5"/>
  <constraint index="53" slack="0"/>
  <constraint index="54" slack="0"/>
  <constraint index="55" slack="0"/>
  <constraint index="56" slack="0.5"/>
  <constraint index="57" slack="-0.25"/>
  <constraint index="58" slack="0"/>
  <constraint index="59" slack="0"/>
  <constraint index="60" slack="0.5"/>
  <constraint index="61" slack="0"/>
  <constraint index="62" slack="0"/>
  <constraint index="63" slack="0"/>
  <constraint index="64" slack="0"/>
  <constraint index="65" slack="1"/>
  <constraint index="66" slack="-1"/>
  <constraint index="67" slack="0"/>
  <constraint index="68" slack="-0.5"/>
  <constraint index="69" slack="0.5"/>
  <constraint index="70" slack="-0.5"/>
  <constraint index="71" slack="0"/>
  <constraint index="72" slack="0"/>
  <constraint index="73" slack="0"/>
  <constraint index="74" slack="-0.25"/>
  <constraint index="75" slack="0"/>
 </linearConstraints>
 <variables>
  <variable index="0" value="3757"/>
  <variable index="1" value="848"/>
  <variable index="2" value="0"/>
  <variable index="3" value="0"/>
  <variable index="4" value="5333"/>
  <variable index="5" value="1163"/>
  <variable index="6" value="0"/>
  <variable index="7" value="0"/>
  <variable index="8" value="0"/>
  <variable index="9" value="0"/>
  <variable index="10" value="0"/>
  <variable index="11" value="1"/>
  <variable index="12" value="1"/>
  <variable index="13" value="0"/>
  <variable index="14" value="0"/>
  <variable index="15" value="0"/>
  <variable index="16" value="0"/>
  <variable index="17" value="0"/>
  <variable index="18" value="0"/>
  <variable index="19" value="0"/>
  <variable index="20" value="0.5"/>
  <variable index="21" value="0"/>
  <variable index="22" value="0"/>
  <variable index="23" value="0.25"/>
  <variable index="24" value="0"/>
  <variable index="25" value="0"/>
  <variable index="26" value="0"/>
  <variable index="27" value="0"/>
  <variable index="28" value="1"/>
  <variable index="29" value="0"/>
  <variable index="30" value="1"/>
  <variable index="31" value="0"/>
  <variable index="32" value="1"/>
  <variable index="33" value="0"/>
  <variable index="34" value="15"/>
  <variable index="35" value="12"/>
  <variable index="36" value="13.25"/>
 </variables>
 <objectiveValues>
  <objective index="0" name="obj1" value="28588781.25"/>
 </objectiveValues>
</CPLEXSolution>
